
  22    4
  10   10   10   10

   0   0   0   0   0   3 2 3 6 
   3  10  10  10  10   2 5 4 
   2  10  10  10  10   3 10 8 7 
  10  10  10  10  10   3 11 10 8 
  10  10  10  10  10   1 7 
   4  10  10  10  10   1 7 
   4  10  10  10  10   2 11 9 
   9  10  10  10  10   1 9 
   1  10  10  10  10   5 21 17 15 13 12 
   2  10  10  10  10   3 17 14 12 
   5  10  10  10  10   2 17 13 
   2  10  10  10  10   3 20 18 16 
  10  10  10  10  10   2 20 14 
   9  10  10  10  10   1 16 
   4  10  10  10  10   1 16 
   4  10  10  10  10   1 19 
  10  10  10  10  10   1 19 
   5  10  10  10  10   1 19 
  10  10  10  10  10   1 22
   4  10  10  10  10   1 22
   5  10  10  10  10   1 22
   0   0   0   0   0   0 
